\* right-error *\
Maximize
OBJ: violation
Subject To
_C1: g_0 >= 0
_C10: - 2.03609762854 g_1 - 1.40818059362 g_2 + pre_0_2962 = -1.09430669688
_C100: pre_1_578200 - 10 z_1_578200 <= 0
_C101: pre_1_578200 - 10 z_1_578200 >= -10
_C102: out_1_645003 - pre_1_645003 >= 0
_C103: out_1_645003 >= 0
_C104: out_1_645003 - pre_1_645003 + 10 z_1_645003 <= 10
_C105: out_1_645003 - 10 z_1_645003 <= 0
_C106: pre_1_645003 - 10 z_1_645003 <= 0
_C107: pre_1_645003 - 10 z_1_645003 >= -10
_C108: out_1_784821 - pre_1_784821 >= 0
_C109: out_1_784821 >= 0
_C11: 1.10709145705 g_2 + 3.83437830949 out_0_2962
 + 4.61661210642 out_0_645003 + pre_0_14955 = -1.70183847858
_C110: out_1_784821 - pre_1_784821 + 10 z_1_784821 <= 10
_C111: out_1_784821 - 10 z_1_784821 <= 0
_C112: pre_1_784821 - 10 z_1_784821 <= 0
_C113: pre_1_784821 - 10 z_1_784821 >= -10
_C114: out_2_0 - pre_2_0 >= 0
_C115: out_2_0 >= 0
_C116: out_2_0 - pre_2_0 + 10 z_2_0 <= 10
_C117: out_2_0 - 10 z_2_0 <= 0
_C118: pre_2_0 - 10 z_2_0 <= 0
_C119: pre_2_0 - 10 z_2_0 >= -10
_C12: 0.64799673292 g_1 - 1.3067664231 out_0_2962 + pre_0_122340
 = -0.489247167285
_C120: out_2_2962 - pre_2_2962 >= 0
_C121: out_2_2962 >= 0
_C122: out_2_2962 - pre_2_2962 + 10 z_2_2962 <= 10
_C123: out_2_2962 - 10 z_2_2962 <= 0
_C124: pre_2_2962 - 10 z_2_2962 <= 0
_C125: pre_2_2962 - 10 z_2_2962 >= -10
_C126: out_2_14955 - pre_2_14955 >= 0
_C127: out_2_14955 >= 0
_C128: out_2_14955 - pre_2_14955 + 10 z_2_14955 <= 10
_C129: out_2_14955 - 10 z_2_14955 <= 0
_C13: - 0.168407583015 out_0_122340 - 1.85339648791 out_0_14955 + pre_0_578200
 = -4.03223252458
_C130: pre_2_14955 - 10 z_2_14955 <= 0
_C131: pre_2_14955 - 10 z_2_14955 >= -10
_C132: out_2_122340 - pre_2_122340 >= 0
_C133: out_2_122340 >= 0
_C134: out_2_122340 - pre_2_122340 + 10 z_2_122340 <= 10
_C135: out_2_122340 - 10 z_2_122340 <= 0
_C136: pre_2_122340 - 10 z_2_122340 <= 0
_C137: pre_2_122340 - 10 z_2_122340 >= -10
_C138: out_2_578200 - pre_2_578200 >= 0
_C139: out_2_578200 >= 0
_C14: - out_0_2962 + pre_0_645003 = 1.92404474745
_C140: out_2_578200 - pre_2_578200 + 10 z_2_578200 <= 10
_C141: out_2_578200 - 10 z_2_578200 <= 0
_C142: pre_2_578200 - 10 z_2_578200 <= 0
_C143: pre_2_578200 - 10 z_2_578200 >= -10
_C144: out_2_645003 - pre_2_645003 >= 0
_C145: out_2_645003 >= 0
_C146: out_2_645003 - pre_2_645003 + 10 z_2_645003 <= 10
_C147: out_2_645003 - 10 z_2_645003 <= 0
_C148: pre_2_645003 - 10 z_2_645003 <= 0
_C149: pre_2_645003 - 10 z_2_645003 >= -10
_C15: 1.70050602584 out_0_2962 + pre_0_784821 = -1.99867219558
_C150: out_2_784821 - pre_2_784821 >= 0
_C151: out_2_784821 >= 0
_C152: out_2_784821 - pre_2_784821 + 10 z_2_784821 <= 10
_C153: out_2_784821 - 10 z_2_784821 <= 0
_C154: pre_2_784821 - 10 z_2_784821 <= 0
_C155: pre_2_784821 - 10 z_2_784821 >= -10
_C156: - out_0_0 - out_1_0 - out_2_0 + 2.33333333333 s + violation = 0
_C16: - 0.0766799256482 out_1_122340 + 2.03418776232 out_1_14955
 - 0.651636974143 out_1_2962 + 0.393018034901 out_1_578200
 + 0.769318797639 out_1_784821 + pre_1_0 = 0.64457326476
_C17: - 2.03609762854 g_0 - 1.40818059362 g_2 + pre_1_2962 = -1.09430669688
_C18: 1.10709145705 g_2 + 3.83437830949 out_1_2962
 + 4.61661210642 out_1_645003 + pre_1_14955 = -1.70183847858
_C19: 0.64799673292 g_0 - 1.3067664231 out_1_2962 + pre_1_122340
 = -0.489247167285
_C2: g_2 <= 1
_C20: - 0.168407583015 out_1_122340 - 1.85339648791 out_1_14955 + pre_1_578200
 = -4.03223252458
_C21: - out_1_2962 + pre_1_645003 = 1.92404474745
_C22: 1.70050602584 out_1_2962 + pre_1_784821 = -1.99867219558
_C23: - 0.0766799256482 out_2_122340 + 2.03418776232 out_2_14955
 - 0.651636974143 out_2_2962 + 0.393018034901 out_2_578200
 + 0.769318797639 out_2_784821 + pre_2_0 = 0.64457326476
_C24: - 2.03609762854 g_0 - 1.40818059362 g_1 + pre_2_2962 = -1.09430669688
_C25: 1.10709145705 g_1 + 3.83437830949 out_2_2962
 + 4.61661210642 out_2_645003 + pre_2_14955 = -1.70183847858
_C26: 0.64799673292 g_0 - 1.3067664231 out_2_2962 + pre_2_122340
 = -0.489247167285
_C27: - 0.168407583015 out_2_122340 - 1.85339648791 out_2_14955 + pre_2_578200
 = -4.03223252458
_C28: - out_2_2962 + pre_2_645003 = 1.92404474745
_C29: 1.70050602584 out_2_2962 + pre_2_784821 = -1.99867219558
_C3: g_0 - g_1 <= 0
_C30: out_0_0 - pre_0_0 >= 0
_C31: out_0_0 >= 0
_C32: out_0_0 - pre_0_0 + 10 z_0_0 <= 10
_C33: out_0_0 - 10 z_0_0 <= 0
_C34: pre_0_0 - 10 z_0_0 <= 0
_C35: pre_0_0 - 10 z_0_0 >= -10
_C36: out_0_2962 - pre_0_2962 >= 0
_C37: out_0_2962 >= 0
_C38: out_0_2962 - pre_0_2962 + 10 z_0_2962 <= 10
_C39: out_0_2962 - 10 z_0_2962 <= 0
_C4: g_1 - g_2 <= 0
_C40: pre_0_2962 - 10 z_0_2962 <= 0
_C41: pre_0_2962 - 10 z_0_2962 >= -10
_C42: out_0_14955 - pre_0_14955 >= 0
_C43: out_0_14955 >= 0
_C44: out_0_14955 - pre_0_14955 + 10 z_0_14955 <= 10
_C45: out_0_14955 - 10 z_0_14955 <= 0
_C46: pre_0_14955 - 10 z_0_14955 <= 0
_C47: pre_0_14955 - 10 z_0_14955 >= -10
_C48: out_0_122340 - pre_0_122340 >= 0
_C49: out_0_122340 >= 0
_C5: - g_0 - g_1 - g_2 + s >= 0
_C50: out_0_122340 - pre_0_122340 + 10 z_0_122340 <= 10
_C51: out_0_122340 - 10 z_0_122340 <= 0
_C52: pre_0_122340 - 10 z_0_122340 <= 0
_C53: pre_0_122340 - 10 z_0_122340 >= -10
_C54: out_0_578200 - pre_0_578200 >= 0
_C55: out_0_578200 >= 0
_C56: out_0_578200 - pre_0_578200 + 10 z_0_578200 <= 10
_C57: out_0_578200 - 10 z_0_578200 <= 0
_C58: pre_0_578200 - 10 z_0_578200 <= 0
_C59: pre_0_578200 - 10 z_0_578200 >= -10
_C6: s >= 1
_C60: out_0_645003 - pre_0_645003 >= 0
_C61: out_0_645003 >= 0
_C62: out_0_645003 - pre_0_645003 + 10 z_0_645003 <= 10
_C63: out_0_645003 - 10 z_0_645003 <= 0
_C64: pre_0_645003 - 10 z_0_645003 <= 0
_C65: pre_0_645003 - 10 z_0_645003 >= -10
_C66: out_0_784821 - pre_0_784821 >= 0
_C67: out_0_784821 >= 0
_C68: out_0_784821 - pre_0_784821 + 10 z_0_784821 <= 10
_C69: out_0_784821 - 10 z_0_784821 <= 0
_C7: - g_0 - g_1 - g_2 + s - 60 s_bin <= 0
_C70: pre_0_784821 - 10 z_0_784821 <= 0
_C71: pre_0_784821 - 10 z_0_784821 >= -10
_C72: out_1_0 - pre_1_0 >= 0
_C73: out_1_0 >= 0
_C74: out_1_0 - pre_1_0 + 10 z_1_0 <= 10
_C75: out_1_0 - 10 z_1_0 <= 0
_C76: pre_1_0 - 10 z_1_0 <= 0
_C77: pre_1_0 - 10 z_1_0 >= -10
_C78: out_1_2962 - pre_1_2962 >= 0
_C79: out_1_2962 >= 0
_C8: s + 60 s_bin <= 61
_C80: out_1_2962 - pre_1_2962 + 10 z_1_2962 <= 10
_C81: out_1_2962 - 10 z_1_2962 <= 0
_C82: pre_1_2962 - 10 z_1_2962 <= 0
_C83: pre_1_2962 - 10 z_1_2962 >= -10
_C84: out_1_14955 - pre_1_14955 >= 0
_C85: out_1_14955 >= 0
_C86: out_1_14955 - pre_1_14955 + 10 z_1_14955 <= 10
_C87: out_1_14955 - 10 z_1_14955 <= 0
_C88: pre_1_14955 - 10 z_1_14955 <= 0
_C89: pre_1_14955 - 10 z_1_14955 >= -10
_C9: - 0.0766799256482 out_0_122340 + 2.03418776232 out_0_14955
 - 0.651636974143 out_0_2962 + 0.393018034901 out_0_578200
 + 0.769318797639 out_0_784821 + pre_0_0 = 0.64457326476
_C90: out_1_122340 - pre_1_122340 >= 0
_C91: out_1_122340 >= 0
_C92: out_1_122340 - pre_1_122340 + 10 z_1_122340 <= 10
_C93: out_1_122340 - 10 z_1_122340 <= 0
_C94: pre_1_122340 - 10 z_1_122340 <= 0
_C95: pre_1_122340 - 10 z_1_122340 >= -10
_C96: out_1_578200 - pre_1_578200 >= 0
_C97: out_1_578200 >= 0
_C98: out_1_578200 - pre_1_578200 + 10 z_1_578200 <= 10
_C99: out_1_578200 - 10 z_1_578200 <= 0
Bounds
 g_0 <= 1
 g_1 <= 1
 g_2 <= 1
 -10 <= pre_0_0 <= 10
 -10 <= pre_0_122340 <= 10
 -10 <= pre_0_14955 <= 10
 -10 <= pre_0_2962 <= 10
 -10 <= pre_0_578200 <= 10
 -10 <= pre_0_645003 <= 10
 -10 <= pre_0_784821 <= 10
 -10 <= pre_1_0 <= 10
 -10 <= pre_1_122340 <= 10
 -10 <= pre_1_14955 <= 10
 -10 <= pre_1_2962 <= 10
 -10 <= pre_1_578200 <= 10
 -10 <= pre_1_645003 <= 10
 -10 <= pre_1_784821 <= 10
 -10 <= pre_2_0 <= 10
 -10 <= pre_2_122340 <= 10
 -10 <= pre_2_14955 <= 10
 -10 <= pre_2_2962 <= 10
 -10 <= pre_2_578200 <= 10
 -10 <= pre_2_645003 <= 10
 -10 <= pre_2_784821 <= 10
 s free
 violation free
Binaries
s_bin
z_0_0
z_0_122340
z_0_14955
z_0_2962
z_0_578200
z_0_645003
z_0_784821
z_1_0
z_1_122340
z_1_14955
z_1_2962
z_1_578200
z_1_645003
z_1_784821
z_2_0
z_2_122340
z_2_14955
z_2_2962
z_2_578200
z_2_645003
z_2_784821
End
